p cnf 736 2010
-30 1 0
-30 -2 0
-31 -1 0
-31 2 0
32 30 31 0
-33 3 0
-33 -4 0
-34 -3 0
-34 4 0
35 33 34 0
36 -32 -35 0
-37 5 0
-37 -6 0
-38 -5 0
-38 6 0
39 37 38 0
40 -36 -39 0
-41 7 0
-41 -8 0
-42 -7 0
-42 8 0
43 41 42 0
44 -40 -43 0
-45 9 0
-45 -10 0
-46 -9 0
-46 10 0
47 45 46 0
48 -44 -47 0
-49 11 0
-49 -12 0
-50 -11 0
-50 12 0
51 49 50 0
52 -48 -51 0
-53 13 0
-53 -14 0
-54 -13 0
-54 14 0
55 53 54 0
56 -52 -55 0
-57 15 0
-57 -16 0
-58 -15 0
-58 16 0
59 57 58 0
60 -56 -59 0
-61 17 0
-61 -18 0
-62 -17 0
-62 18 0
63 61 62 0
64 -60 -63 0
65 -19 20 0
66 19 -20 0
-67 -65 0
-67 -66 0
-68 19 0
-68 21 0
68 -19 -21 0
-69 17 0
-69 68 0
69 -17 -68 0
-70 17 0
-70 21 0
70 -17 -21 0
-71 15 0
-71 70 0
71 -15 -70 0
-72 -15 0
-72 -70 0
72 15 70 0
-73 -71 0
-73 -72 0
73 71 72 0
-74 69 0
-74 73 0
74 -69 -73 0
-75 -69 0
-75 -73 0
75 69 73 0
-76 -74 0
-76 -75 0
76 74 75 0
-77 19 0
-77 22 0
77 -19 -22 0
-78 76 0
-78 77 0
78 -76 -77 0
-79 -71 0
-79 -74 0
79 71 74 0
-80 15 0
-80 21 0
80 -15 -21 0
-81 13 0
-81 80 0
81 -13 -80 0
-82 -13 0
-82 -80 0
82 13 80 0
-83 -81 0
-83 -82 0
83 81 82 0
-84 -79 0
-84 83 0
84 79 -83 0
-85 79 0
-85 -83 0
85 -79 83 0
-86 -84 0
-86 -85 0
86 84 85 0
-87 17 0
-87 22 0
87 -17 -22 0
-88 86 0
-88 87 0
88 -86 -87 0
-89 -86 0
-89 -87 0
89 86 87 0
-90 -88 0
-90 -89 0
90 88 89 0
-91 78 0
-91 90 0
91 -78 -90 0
-92 -78 0
-92 -90 0
92 78 90 0
-93 -91 0
-93 -92 0
93 91 92 0
-94 19 0
-94 23 0
94 -19 -23 0
-95 93 0
-95 94 0
95 -93 -94 0
-96 -88 0
-96 -91 0
96 88 91 0
-97 -81 0
-97 -84 0
97 81 84 0
-98 13 0
-98 21 0
98 -13 -21 0
-99 11 0
-99 98 0
99 -11 -98 0
-100 -11 0
-100 -98 0
100 11 98 0
-101 -99 0
-101 -100 0
101 99 100 0
-102 -97 0
-102 101 0
102 97 -101 0
-103 97 0
-103 -101 0
103 -97 101 0
-104 -102 0
-104 -103 0
104 102 103 0
-105 15 0
-105 22 0
105 -15 -22 0
-106 104 0
-106 105 0
106 -104 -105 0
-107 -104 0
-107 -105 0
107 104 105 0
-108 -106 0
-108 -107 0
108 106 107 0
-109 -96 0
-109 108 0
109 96 -108 0
-110 96 0
-110 -108 0
110 -96 108 0
-111 -109 0
-111 -110 0
111 109 110 0
-112 17 0
-112 23 0
112 -17 -23 0
-113 111 0
-113 112 0
113 -111 -112 0
-114 -111 0
-114 -112 0
114 111 112 0
-115 -113 0
-115 -114 0
115 113 114 0
-116 95 0
-116 115 0
116 -95 -115 0
-117 -95 0
-117 -115 0
117 95 115 0
-118 -116 0
-118 -117 0
118 116 117 0
-119 19 0
-119 24 0
119 -19 -24 0
-120 118 0
-120 119 0
120 -118 -119 0
-121 -113 0
-121 -116 0
121 113 116 0
-122 -106 0
-122 -109 0
122 106 109 0
-123 -99 0
-123 -102 0
123 99 102 0
-124 11 0
-124 21 0
124 -11 -21 0
-125 9 0
-125 124 0
125 -9 -124 0
-126 -9 0
-126 -124 0
126 9 124 0
-127 -125 0
-127 -126 0
127 125 126 0
-128 -123 0
-128 127 0
128 123 -127 0
-129 123 0
-129 -127 0
129 -123 127 0
-130 -128 0
-130 -129 0
130 128 129 0
-131 13 0
-131 22 0
131 -13 -22 0
-132 130 0
-132 131 0
132 -130 -131 0
-133 -130 0
-133 -131 0
133 130 131 0
-134 -132 0
-134 -133 0
134 132 133 0
-135 -122 0
-135 134 0
135 122 -134 0
-136 122 0
-136 -134 0
136 -122 134 0
-137 -135 0
-137 -136 0
137 135 136 0
-138 15 0
-138 23 0
138 -15 -23 0
-139 137 0
-139 138 0
139 -137 -138 0
-140 -137 0
-140 -138 0
140 137 138 0
-141 -139 0
-141 -140 0
141 139 140 0
-142 -121 0
-142 141 0
142 121 -141 0
-143 121 0
-143 -141 0
143 -121 141 0
-144 -142 0
-144 -143 0
144 142 143 0
-145 17 0
-145 24 0
145 -17 -24 0
-146 144 0
-146 145 0
146 -144 -145 0
-147 -144 0
-147 -145 0
147 144 145 0
-148 -146 0
-148 -147 0
148 146 147 0
-149 120 0
-149 148 0
149 -120 -148 0
-150 -120 0
-150 -148 0
150 120 148 0
-151 -149 0
-151 -150 0
151 149 150 0
-152 19 0
-152 25 0
152 -19 -25 0
-153 151 0
-153 152 0
153 -151 -152 0
-154 -146 0
-154 -149 0
154 146 149 0
-155 -139 0
-155 -142 0
155 139 142 0
-156 -132 0
-156 -135 0
156 132 135 0
-157 -125 0
-157 -128 0
157 125 128 0
-158 9 0
-158 21 0
158 -9 -21 0
-159 7 0
-159 158 0
159 -7 -158 0
-160 -7 0
-160 -158 0
160 7 158 0
-161 -159 0
-161 -160 0
161 159 160 0
-162 -157 0
-162 161 0
162 157 -161 0
-163 157 0
-163 -161 0
163 -157 161 0
-164 -162 0
-164 -163 0
164 162 163 0
-165 11 0
-165 22 0
165 -11 -22 0
-166 164 0
-166 165 0
166 -164 -165 0
-167 -164 0
-167 -165 0
167 164 165 0
-168 -166 0
-168 -167 0
168 166 167 0
-169 -156 0
-169 168 0
169 156 -168 0
-170 156 0
-170 -168 0
170 -156 168 0
-171 -169 0
-171 -170 0
171 169 170 0
-172 13 0
-172 23 0
172 -13 -23 0
-173 171 0
-173 172 0
173 -171 -172 0
-174 -171 0
-174 -172 0
174 171 172 0
-175 -173 0
-175 -174 0
175 173 174 0
-176 -155 0
-176 175 0
176 155 -175 0
-177 155 0
-177 -175 0
177 -155 175 0
-178 -176 0
-178 -177 0
178 176 177 0
-179 15 0
-179 24 0
179 -15 -24 0
-180 178 0
-180 179 0
180 -178 -179 0
-181 -178 0
-181 -179 0
181 178 179 0
-182 -180 0
-182 -181 0
182 180 181 0
-183 -154 0
-183 182 0
183 154 -182 0
-184 154 0
-184 -182 0
184 -154 182 0
-185 -183 0
-185 -184 0
185 183 184 0
-186 17 0
-186 25 0
186 -17 -25 0
-187 185 0
-187 186 0
187 -185 -186 0
-188 -185 0
-188 -186 0
188 185 186 0
-189 -187 0
-189 -188 0
189 187 188 0
-190 153 0
-190 189 0
190 -153 -189 0
-191 -153 0
-191 -189 0
191 153 189 0
-192 -190 0
-192 -191 0
192 190 191 0
-193 19 0
-193 26 0
193 -19 -26 0
-194 192 0
-194 193 0
194 -192 -193 0
-195 -187 0
-195 -190 0
195 187 190 0
-196 -180 0
-196 -183 0
196 180 183 0
-197 -173 0
-197 -176 0
197 173 176 0
-198 -166 0
-198 -169 0
198 166 169 0
-199 -159 0
-199 -162 0
199 159 162 0
-200 7 0
-200 21 0
200 -7 -21 0
-201 5 0
-201 200 0
201 -5 -200 0
-202 -5 0
-202 -200 0
202 5 200 0
-203 -201 0
-203 -202 0
203 201 202 0
-204 -199 0
-204 203 0
204 199 -203 0
-205 199 0
-205 -203 0
205 -199 203 0
-206 -204 0
-206 -205 0
206 204 205 0
-207 9 0
-207 22 0
207 -9 -22 0
-208 206 0
-208 207 0
208 -206 -207 0
-209 -206 0
-209 -207 0
209 206 207 0
-210 -208 0
-210 -209 0
210 208 209 0
-211 -198 0
-211 210 0
211 198 -210 0
-212 198 0
-212 -210 0
212 -198 210 0
-213 -211 0
-213 -212 0
213 211 212 0
-214 11 0
-214 23 0
214 -11 -23 0
-215 213 0
-215 214 0
215 -213 -214 0
-216 -213 0
-216 -214 0
216 213 214 0
-217 -215 0
-217 -216 0
217 215 216 0
-218 -197 0
-218 217 0
218 197 -217 0
-219 197 0
-219 -217 0
219 -197 217 0
-220 -218 0
-220 -219 0
220 218 219 0
-221 13 0
-221 24 0
221 -13 -24 0
-222 220 0
-222 221 0
222 -220 -221 0
-223 -220 0
-223 -221 0
223 220 221 0
-224 -222 0
-224 -223 0
224 222 223 0
-225 -196 0
-225 224 0
225 196 -224 0
-226 196 0
-226 -224 0
226 -196 224 0
-227 -225 0
-227 -226 0
227 225 226 0
-228 15 0
-228 25 0
228 -15 -25 0
-229 227 0
-229 228 0
229 -227 -228 0
-230 -227 0
-230 -228 0
230 227 228 0
-231 -229 0
-231 -230 0
231 229 230 0
-232 -195 0
-232 231 0
232 195 -231 0
-233 195 0
-233 -231 0
233 -195 231 0
-234 -232 0
-234 -233 0
234 232 233 0
-235 17 0
-235 26 0
235 -17 -26 0
-236 234 0
-236 235 0
236 -234 -235 0
-237 -234 0
-237 -235 0
237 234 235 0
-238 -236 0
-238 -237 0
238 236 237 0
-239 194 0
-239 238 0
239 -194 -238 0
-240 -194 0
-240 -238 0
240 194 238 0
-241 -239 0
-241 -240 0
241 239 240 0
-242 19 0
-242 27 0
242 -19 -27 0
-243 241 0
-243 242 0
243 -241 -242 0
-244 -236 0
-244 -239 0
244 236 239 0
-245 -229 0
-245 -232 0
245 229 232 0
-246 -222 0
-246 -225 0
246 222 225 0
-247 -215 0
-247 -218 0
247 215 218 0
-248 -208 0
-248 -211 0
248 208 211 0
-249 -201 0
-249 -204 0
249 201 204 0
-250 5 0
-250 21 0
250 -5 -21 0
-251 3 0
-251 250 0
251 -3 -250 0
-252 -3 0
-252 -250 0
252 3 250 0
-253 -251 0
-253 -252 0
253 251 252 0
-254 -249 0
-254 253 0
254 249 -253 0
-255 249 0
-255 -253 0
255 -249 253 0
-256 -254 0
-256 -255 0
256 254 255 0
-257 7 0
-257 22 0
257 -7 -22 0
-258 256 0
-258 257 0
258 -256 -257 0
-259 -256 0
-259 -257 0
259 256 257 0
-260 -258 0
-260 -259 0
260 258 259 0
-261 -248 0
-261 260 0
261 248 -260 0
-262 248 0
-262 -260 0
262 -248 260 0
-263 -261 0
-263 -262 0
263 261 262 0
-264 9 0
-264 23 0
264 -9 -23 0
-265 263 0
-265 264 0
265 -263 -264 0
-266 -263 0
-266 -264 0
266 263 264 0
-267 -265 0
-267 -266 0
267 265 266 0
-268 -247 0
-268 267 0
268 247 -267 0
-269 247 0
-269 -267 0
269 -247 267 0
-270 -268 0
-270 -269 0
270 268 269 0
-271 11 0
-271 24 0
271 -11 -24 0
-272 270 0
-272 271 0
272 -270 -271 0
-273 -270 0
-273 -271 0
273 270 271 0
-274 -272 0
-274 -273 0
274 272 273 0
-275 -246 0
-275 274 0
275 246 -274 0
-276 246 0
-276 -274 0
276 -246 274 0
-277 -275 0
-277 -276 0
277 275 276 0
-278 13 0
-278 25 0
278 -13 -25 0
-279 277 0
-279 278 0
279 -277 -278 0
-280 -277 0
-280 -278 0
280 277 278 0
-281 -279 0
-281 -280 0
281 279 280 0
-282 -245 0
-282 281 0
282 245 -281 0
-283 245 0
-283 -281 0
283 -245 281 0
-284 -282 0
-284 -283 0
284 282 283 0
-285 15 0
-285 26 0
285 -15 -26 0
-286 284 0
-286 285 0
286 -284 -285 0
-287 -284 0
-287 -285 0
287 284 285 0
-288 -286 0
-288 -287 0
288 286 287 0
-289 -244 0
-289 288 0
289 244 -288 0
-290 244 0
-290 -288 0
290 -244 288 0
-291 -289 0
-291 -290 0
291 289 290 0
-292 17 0
-292 27 0
292 -17 -27 0
-293 291 0
-293 292 0
293 -291 -292 0
-294 -291 0
-294 -292 0
294 291 292 0
-295 -293 0
-295 -294 0
295 293 294 0
-296 243 0
-296 295 0
296 -243 -295 0
-297 -243 0
-297 -295 0
297 243 295 0
-298 -296 0
-298 -297 0
298 296 297 0
-299 19 0
-299 28 0
299 -19 -28 0
-300 298 0
-300 299 0
300 -298 -299 0
-301 -293 0
-301 -296 0
301 293 296 0
-302 -286 0
-302 -289 0
302 286 289 0
-303 -279 0
-303 -282 0
303 279 282 0
-304 -272 0
-304 -275 0
304 272 275 0
-305 -265 0
-305 -268 0
305 265 268 0
-306 -258 0
-306 -261 0
306 258 261 0
-307 -251 0
-307 -254 0
307 251 254 0
-308 3 0
-308 21 0
308 -3 -21 0
-309 1 0
-309 308 0
309 -1 -308 0
-310 -1 0
-310 -308 0
310 1 308 0
-311 -309 0
-311 -310 0
311 309 310 0
-312 -307 0
-312 311 0
312 307 -311 0
-313 307 0
-313 -311 0
313 -307 311 0
-314 -312 0
-314 -313 0
314 312 313 0
-315 5 0
-315 22 0
315 -5 -22 0
-316 314 0
-316 315 0
316 -314 -315 0
-317 -314 0
-317 -315 0
317 314 315 0
-318 -316 0
-318 -317 0
318 316 317 0
-319 -306 0
-319 318 0
319 306 -318 0
-320 306 0
-320 -318 0
320 -306 318 0
-321 -319 0
-321 -320 0
321 319 320 0
-322 7 0
-322 23 0
322 -7 -23 0
-323 321 0
-323 322 0
323 -321 -322 0
-324 -321 0
-324 -322 0
324 321 322 0
-325 -323 0
-325 -324 0
325 323 324 0
-326 -305 0
-326 325 0
326 305 -325 0
-327 305 0
-327 -325 0
327 -305 325 0
-328 -326 0
-328 -327 0
328 326 327 0
-329 9 0
-329 24 0
329 -9 -24 0
-330 328 0
-330 329 0
330 -328 -329 0
-331 -328 0
-331 -329 0
331 328 329 0
-332 -330 0
-332 -331 0
332 330 331 0
-333 -304 0
-333 332 0
333 304 -332 0
-334 304 0
-334 -332 0
334 -304 332 0
-335 -333 0
-335 -334 0
335 333 334 0
-336 11 0
-336 25 0
336 -11 -25 0
-337 335 0
-337 336 0
337 -335 -336 0
-338 -335 0
-338 -336 0
338 335 336 0
-339 -337 0
-339 -338 0
339 337 338 0
-340 -303 0
-340 339 0
340 303 -339 0
-341 303 0
-341 -339 0
341 -303 339 0
-342 -340 0
-342 -341 0
342 340 341 0
-343 13 0
-343 26 0
343 -13 -26 0
-344 342 0
-344 343 0
344 -342 -343 0
-345 -342 0
-345 -343 0
345 342 343 0
-346 -344 0
-346 -345 0
346 344 345 0
-347 -302 0
-347 346 0
347 302 -346 0
-348 302 0
-348 -346 0
348 -302 346 0
-349 -347 0
-349 -348 0
349 347 348 0
-350 15 0
-350 27 0
350 -15 -27 0
-351 349 0
-351 350 0
351 -349 -350 0
-352 -349 0
-352 -350 0
352 349 350 0
-353 -351 0
-353 -352 0
353 351 352 0
-354 -301 0
-354 353 0
354 301 -353 0
-355 301 0
-355 -353 0
355 -301 353 0
-356 -354 0
-356 -355 0
356 354 355 0
-357 17 0
-357 28 0
357 -17 -28 0
-358 356 0
-358 357 0
358 -356 -357 0
-359 -356 0
-359 -357 0
359 356 357 0
-360 -358 0
-360 -359 0
360 358 359 0
-361 300 0
-361 360 0
361 -300 -360 0
-362 -300 0
-362 -360 0
362 300 360 0
-363 -361 0
-363 -362 0
363 361 362 0
-364 19 0
-364 29 0
364 -19 -29 0
-365 363 0
-365 364 0
365 -363 -364 0
-366 -363 0
-366 -364 0
366 363 364 0
-367 -365 0
-367 -366 0
367 365 366 0
-368 20 0
-368 21 0
368 -20 -21 0
-369 18 0
-369 368 0
369 -18 -368 0
-370 18 0
-370 21 0
370 -18 -21 0
-371 16 0
-371 370 0
371 -16 -370 0
-372 -16 0
-372 -370 0
372 16 370 0
-373 -371 0
-373 -372 0
373 371 372 0
-374 369 0
-374 373 0
374 -369 -373 0
-375 -369 0
-375 -373 0
375 369 373 0
-376 -374 0
-376 -375 0
376 374 375 0
-377 20 0
-377 22 0
377 -20 -22 0
-378 376 0
-378 377 0
378 -376 -377 0
-379 -371 0
-379 -374 0
379 371 374 0
-380 16 0
-380 21 0
380 -16 -21 0
-381 14 0
-381 380 0
381 -14 -380 0
-382 -14 0
-382 -380 0
382 14 380 0
-383 -381 0
-383 -382 0
383 381 382 0
-384 -379 0
-384 383 0
384 379 -383 0
-385 379 0
-385 -383 0
385 -379 383 0
-386 -384 0
-386 -385 0
386 384 385 0
-387 18 0
-387 22 0
387 -18 -22 0
-388 386 0
-388 387 0
388 -386 -387 0
-389 -386 0
-389 -387 0
389 386 387 0
-390 -388 0
-390 -389 0
390 388 389 0
-391 378 0
-391 390 0
391 -378 -390 0
-392 -378 0
-392 -390 0
392 378 390 0
-393 -391 0
-393 -392 0
393 391 392 0
-394 20 0
-394 23 0
394 -20 -23 0
-395 393 0
-395 394 0
395 -393 -394 0
-396 -388 0
-396 -391 0
396 388 391 0
-397 -381 0
-397 -384 0
397 381 384 0
-398 14 0
-398 21 0
398 -14 -21 0
-399 12 0
-399 398 0
399 -12 -398 0
-400 -12 0
-400 -398 0
400 12 398 0
-401 -399 0
-401 -400 0
401 399 400 0
-402 -397 0
-402 401 0
402 397 -401 0
-403 397 0
-403 -401 0
403 -397 401 0
-404 -402 0
-404 -403 0
404 402 403 0
-405 16 0
-405 22 0
405 -16 -22 0
-406 404 0
-406 405 0
406 -404 -405 0
-407 -404 0
-407 -405 0
407 404 405 0
-408 -406 0
-408 -407 0
408 406 407 0
-409 -396 0
-409 408 0
409 396 -408 0
-410 396 0
-410 -408 0
410 -396 408 0
-411 -409 0
-411 -410 0
411 409 410 0
-412 18 0
-412 23 0
412 -18 -23 0
-413 411 0
-413 412 0
413 -411 -412 0
-414 -411 0
-414 -412 0
414 411 412 0
-415 -413 0
-415 -414 0
415 413 414 0
-416 395 0
-416 415 0
416 -395 -415 0
-417 -395 0
-417 -415 0
417 395 415 0
-418 -416 0
-418 -417 0
418 416 417 0
-419 20 0
-419 24 0
419 -20 -24 0
-420 418 0
-420 419 0
420 -418 -419 0
-421 -413 0
-421 -416 0
421 413 416 0
-422 -406 0
-422 -409 0
422 406 409 0
-423 -399 0
-423 -402 0
423 399 402 0
-424 12 0
-424 21 0
424 -12 -21 0
-425 10 0
-425 424 0
425 -10 -424 0
-426 -10 0
-426 -424 0
426 10 424 0
-427 -425 0
-427 -426 0
427 425 426 0
-428 -423 0
-428 427 0
428 423 -427 0
-429 423 0
-429 -427 0
429 -423 427 0
-430 -428 0
-430 -429 0
430 428 429 0
-431 14 0
-431 22 0
431 -14 -22 0
-432 430 0
-432 431 0
432 -430 -431 0
-433 -430 0
-433 -431 0
433 430 431 0
-434 -432 0
-434 -433 0
434 432 433 0
-435 -422 0
-435 434 0
435 422 -434 0
-436 422 0
-436 -434 0
436 -422 434 0
-437 -435 0
-437 -436 0
437 435 436 0
-438 16 0
-438 23 0
438 -16 -23 0
-439 437 0
-439 438 0
439 -437 -438 0
-440 -437 0
-440 -438 0
440 437 438 0
-441 -439 0
-441 -440 0
441 439 440 0
-442 -421 0
-442 441 0
442 421 -441 0
-443 421 0
-443 -441 0
443 -421 441 0
-444 -442 0
-444 -443 0
444 442 443 0
-445 18 0
-445 24 0
445 -18 -24 0
-446 444 0
-446 445 0
446 -444 -445 0
-447 -444 0
-447 -445 0
447 444 445 0
-448 -446 0
-448 -447 0
448 446 447 0
-449 420 0
-449 448 0
449 -420 -448 0
-450 -420 0
-450 -448 0
450 420 448 0
-451 -449 0
-451 -450 0
451 449 450 0
-452 20 0
-452 25 0
452 -20 -25 0
-453 451 0
-453 452 0
453 -451 -452 0
-454 -446 0
-454 -449 0
454 446 449 0
-455 -439 0
-455 -442 0
455 439 442 0
-456 -432 0
-456 -435 0
456 432 435 0
-457 -425 0
-457 -428 0
457 425 428 0
-458 10 0
-458 21 0
458 -10 -21 0
-459 8 0
-459 458 0
459 -8 -458 0
-460 -8 0
-460 -458 0
460 8 458 0
-461 -459 0
-461 -460 0
461 459 460 0
-462 -457 0
-462 461 0
462 457 -461 0
-463 457 0
-463 -461 0
463 -457 461 0
-464 -462 0
-464 -463 0
464 462 463 0
-465 12 0
-465 22 0
465 -12 -22 0
-466 464 0
-466 465 0
466 -464 -465 0
-467 -464 0
-467 -465 0
467 464 465 0
-468 -466 0
-468 -467 0
468 466 467 0
-469 -456 0
-469 468 0
469 456 -468 0
-470 456 0
-470 -468 0
470 -456 468 0
-471 -469 0
-471 -470 0
471 469 470 0
-472 14 0
-472 23 0
472 -14 -23 0
-473 471 0
-473 472 0
473 -471 -472 0
-474 -471 0
-474 -472 0
474 471 472 0
-475 -473 0
-475 -474 0
475 473 474 0
-476 -455 0
-476 475 0
476 455 -475 0
-477 455 0
-477 -475 0
477 -455 475 0
-478 -476 0
-478 -477 0
478 476 477 0
-479 16 0
-479 24 0
479 -16 -24 0
-480 478 0
-480 479 0
480 -478 -479 0
-481 -478 0
-481 -479 0
481 478 479 0
-482 -480 0
-482 -481 0
482 480 481 0
-483 -454 0
-483 482 0
483 454 -482 0
-484 454 0
-484 -482 0
484 -454 482 0
-485 -483 0
-485 -484 0
485 483 484 0
-486 18 0
-486 25 0
486 -18 -25 0
-487 485 0
-487 486 0
487 -485 -486 0
-488 -485 0
-488 -486 0
488 485 486 0
-489 -487 0
-489 -488 0
489 487 488 0
-490 453 0
-490 489 0
490 -453 -489 0
-491 -453 0
-491 -489 0
491 453 489 0
-492 -490 0
-492 -491 0
492 490 491 0
-493 20 0
-493 26 0
493 -20 -26 0
-494 492 0
-494 493 0
494 -492 -493 0
-495 -487 0
-495 -490 0
495 487 490 0
-496 -480 0
-496 -483 0
496 480 483 0
-497 -473 0
-497 -476 0
497 473 476 0
-498 -466 0
-498 -469 0
498 466 469 0
-499 -459 0
-499 -462 0
499 459 462 0
-500 8 0
-500 21 0
500 -8 -21 0
-501 6 0
-501 500 0
501 -6 -500 0
-502 -6 0
-502 -500 0
502 6 500 0
-503 -501 0
-503 -502 0
503 501 502 0
-504 -499 0
-504 503 0
504 499 -503 0
-505 499 0
-505 -503 0
505 -499 503 0
-506 -504 0
-506 -505 0
506 504 505 0
-507 10 0
-507 22 0
507 -10 -22 0
-508 506 0
-508 507 0
508 -506 -507 0
-509 -506 0
-509 -507 0
509 506 507 0
-510 -508 0
-510 -509 0
510 508 509 0
-511 -498 0
-511 510 0
511 498 -510 0
-512 498 0
-512 -510 0
512 -498 510 0
-513 -511 0
-513 -512 0
513 511 512 0
-514 12 0
-514 23 0
514 -12 -23 0
-515 513 0
-515 514 0
515 -513 -514 0
-516 -513 0
-516 -514 0
516 513 514 0
-517 -515 0
-517 -516 0
517 515 516 0
-518 -497 0
-518 517 0
518 497 -517 0
-519 497 0
-519 -517 0
519 -497 517 0
-520 -518 0
-520 -519 0
520 518 519 0
-521 14 0
-521 24 0
521 -14 -24 0
-522 520 0
-522 521 0
522 -520 -521 0
-523 -520 0
-523 -521 0
523 520 521 0
-524 -522 0
-524 -523 0
524 522 523 0
-525 -496 0
-525 524 0
525 496 -524 0
-526 496 0
-526 -524 0
526 -496 524 0
-527 -525 0
-527 -526 0
527 525 526 0
-528 16 0
-528 25 0
528 -16 -25 0
-529 527 0
-529 528 0
529 -527 -528 0
-530 -527 0
-530 -528 0
530 527 528 0
-531 -529 0
-531 -530 0
531 529 530 0
-532 -495 0
-532 531 0
532 495 -531 0
-533 495 0
-533 -531 0
533 -495 531 0
-534 -532 0
-534 -533 0
534 532 533 0
-535 18 0
-535 26 0
535 -18 -26 0
-536 534 0
-536 535 0
536 -534 -535 0
-537 -534 0
-537 -535 0
537 534 535 0
-538 -536 0
-538 -537 0
538 536 537 0
-539 494 0
-539 538 0
539 -494 -538 0
-540 -494 0
-540 -538 0
540 494 538 0
-541 -539 0
-541 -540 0
541 539 540 0
-542 20 0
-542 27 0
542 -20 -27 0
-543 541 0
-543 542 0
543 -541 -542 0
-544 -536 0
-544 -539 0
544 536 539 0
-545 -529 0
-545 -532 0
545 529 532 0
-546 -522 0
-546 -525 0
546 522 525 0
-547 -515 0
-547 -518 0
547 515 518 0
-548 -508 0
-548 -511 0
548 508 511 0
-549 -501 0
-549 -504 0
549 501 504 0
-550 6 0
-550 21 0
550 -6 -21 0
-551 4 0
-551 550 0
551 -4 -550 0
-552 -4 0
-552 -550 0
552 4 550 0
-553 -551 0
-553 -552 0
553 551 552 0
-554 -549 0
-554 553 0
554 549 -553 0
-555 549 0
-555 -553 0
555 -549 553 0
-556 -554 0
-556 -555 0
556 554 555 0
-557 8 0
-557 22 0
557 -8 -22 0
-558 556 0
-558 557 0
558 -556 -557 0
-559 -556 0
-559 -557 0
559 556 557 0
-560 -558 0
-560 -559 0
560 558 559 0
-561 -548 0
-561 560 0
561 548 -560 0
-562 548 0
-562 -560 0
562 -548 560 0
-563 -561 0
-563 -562 0
563 561 562 0
-564 10 0
-564 23 0
564 -10 -23 0
-565 563 0
-565 564 0
565 -563 -564 0
-566 -563 0
-566 -564 0
566 563 564 0
-567 -565 0
-567 -566 0
567 565 566 0
-568 -547 0
-568 567 0
568 547 -567 0
-569 547 0
-569 -567 0
569 -547 567 0
-570 -568 0
-570 -569 0
570 568 569 0
-571 12 0
-571 24 0
571 -12 -24 0
-572 570 0
-572 571 0
572 -570 -571 0
-573 -570 0
-573 -571 0
573 570 571 0
-574 -572 0
-574 -573 0
574 572 573 0
-575 -546 0
-575 574 0
575 546 -574 0
-576 546 0
-576 -574 0
576 -546 574 0
-577 -575 0
-577 -576 0
577 575 576 0
-578 14 0
-578 25 0
578 -14 -25 0
-579 577 0
-579 578 0
579 -577 -578 0
-580 -577 0
-580 -578 0
580 577 578 0
-581 -579 0
-581 -580 0
581 579 580 0
-582 -545 0
-582 581 0
582 545 -581 0
-583 545 0
-583 -581 0
583 -545 581 0
-584 -582 0
-584 -583 0
584 582 583 0
-585 16 0
-585 26 0
585 -16 -26 0
-586 584 0
-586 585 0
586 -584 -585 0
-587 -584 0
-587 -585 0
587 584 585 0
-588 -586 0
-588 -587 0
588 586 587 0
-589 -544 0
-589 588 0
589 544 -588 0
-590 544 0
-590 -588 0
590 -544 588 0
-591 -589 0
-591 -590 0
591 589 590 0
-592 18 0
-592 27 0
592 -18 -27 0
-593 591 0
-593 592 0
593 -591 -592 0
-594 -591 0
-594 -592 0
594 591 592 0
-595 -593 0
-595 -594 0
595 593 594 0
-596 543 0
-596 595 0
596 -543 -595 0
-597 -543 0
-597 -595 0
597 543 595 0
-598 -596 0
-598 -597 0
598 596 597 0
-599 20 0
-599 28 0
599 -20 -28 0
-600 598 0
-600 599 0
600 -598 -599 0
-601 -593 0
-601 -596 0
601 593 596 0
-602 -586 0
-602 -589 0
602 586 589 0
-603 -579 0
-603 -582 0
603 579 582 0
-604 -572 0
-604 -575 0
604 572 575 0
-605 -565 0
-605 -568 0
605 565 568 0
-606 -558 0
-606 -561 0
606 558 561 0
-607 -551 0
-607 -554 0
607 551 554 0
-608 4 0
-608 21 0
608 -4 -21 0
-609 2 0
-609 608 0
609 -2 -608 0
-610 -2 0
-610 -608 0
610 2 608 0
-611 -609 0
-611 -610 0
611 609 610 0
-612 -607 0
-612 611 0
612 607 -611 0
-613 607 0
-613 -611 0
613 -607 611 0
-614 -612 0
-614 -613 0
614 612 613 0
-615 6 0
-615 22 0
615 -6 -22 0
-616 614 0
-616 615 0
616 -614 -615 0
-617 -614 0
-617 -615 0
617 614 615 0
-618 -616 0
-618 -617 0
618 616 617 0
-619 -606 0
-619 618 0
619 606 -618 0
-620 606 0
-620 -618 0
620 -606 618 0
-621 -619 0
-621 -620 0
621 619 620 0
-622 8 0
-622 23 0
622 -8 -23 0
-623 621 0
-623 622 0
623 -621 -622 0
-624 -621 0
-624 -622 0
624 621 622 0
-625 -623 0
-625 -624 0
625 623 624 0
-626 -605 0
-626 625 0
626 605 -625 0
-627 605 0
-627 -625 0
627 -605 625 0
-628 -626 0
-628 -627 0
628 626 627 0
-629 10 0
-629 24 0
629 -10 -24 0
-630 628 0
-630 629 0
630 -628 -629 0
-631 -628 0
-631 -629 0
631 628 629 0
-632 -630 0
-632 -631 0
632 630 631 0
-633 -604 0
-633 632 0
633 604 -632 0
-634 604 0
-634 -632 0
634 -604 632 0
-635 -633 0
-635 -634 0
635 633 634 0
-636 12 0
-636 25 0
636 -12 -25 0
-637 635 0
-637 636 0
637 -635 -636 0
-638 -635 0
-638 -636 0
638 635 636 0
-639 -637 0
-639 -638 0
639 637 638 0
-640 -603 0
-640 639 0
640 603 -639 0
-641 603 0
-641 -639 0
641 -603 639 0
-642 -640 0
-642 -641 0
642 640 641 0
-643 14 0
-643 26 0
643 -14 -26 0
-644 642 0
-644 643 0
644 -642 -643 0
-645 -642 0
-645 -643 0
645 642 643 0
-646 -644 0
-646 -645 0
646 644 645 0
-647 -602 0
-647 646 0
647 602 -646 0
-648 602 0
-648 -646 0
648 -602 646 0
-649 -647 0
-649 -648 0
649 647 648 0
-650 16 0
-650 27 0
650 -16 -27 0
-651 649 0
-651 650 0
651 -649 -650 0
-652 -649 0
-652 -650 0
652 649 650 0
-653 -651 0
-653 -652 0
653 651 652 0
-654 -601 0
-654 653 0
654 601 -653 0
-655 601 0
-655 -653 0
655 -601 653 0
-656 -654 0
-656 -655 0
656 654 655 0
-657 18 0
-657 28 0
657 -18 -28 0
-658 656 0
-658 657 0
658 -656 -657 0
-659 -656 0
-659 -657 0
659 656 657 0
-660 -658 0
-660 -659 0
660 658 659 0
-661 600 0
-661 660 0
661 -600 -660 0
-662 -600 0
-662 -660 0
662 600 660 0
-663 -661 0
-663 -662 0
663 661 662 0
-664 20 0
-664 29 0
664 -20 -29 0
-665 663 0
-665 664 0
665 -663 -664 0
-666 -663 0
-666 -664 0
666 663 664 0
-667 -665 0
-667 -666 0
667 665 666 0
668 -367 667 0
669 367 -667 0
-670 -668 0
-670 -669 0
-671 -298 0
-671 -299 0
671 298 299 0
-672 -300 0
-672 -671 0
672 300 671 0
-673 -598 0
-673 -599 0
673 598 599 0
-674 -600 0
-674 -673 0
674 600 673 0
675 -672 674 0
676 672 -674 0
-677 -675 0
-677 -676 0
-678 670 0
-678 677 0
-679 -241 0
-679 -242 0
679 241 242 0
-680 -243 0
-680 -679 0
680 243 679 0
-681 -541 0
-681 -542 0
681 541 542 0
-682 -543 0
-682 -681 0
682 543 681 0
683 -680 682 0
684 680 -682 0
-685 -683 0
-685 -684 0
-686 678 0
-686 685 0
-687 -192 0
-687 -193 0
687 192 193 0
-688 -194 0
-688 -687 0
688 194 687 0
-689 -492 0
-689 -493 0
689 492 493 0
-690 -494 0
-690 -689 0
690 494 689 0
691 -688 690 0
692 688 -690 0
-693 -691 0
-693 -692 0
-694 686 0
-694 693 0
-695 -151 0
-695 -152 0
695 151 152 0
-696 -153 0
-696 -695 0
696 153 695 0
-697 -451 0
-697 -452 0
697 451 452 0
-698 -453 0
-698 -697 0
698 453 697 0
699 -696 698 0
700 696 -698 0
-701 -699 0
-701 -700 0
-702 694 0
-702 701 0
-703 -118 0
-703 -119 0
703 118 119 0
-704 -120 0
-704 -703 0
704 120 703 0
-705 -418 0
-705 -419 0
705 418 419 0
-706 -420 0
-706 -705 0
706 420 705 0
707 -704 706 0
708 704 -706 0
-709 -707 0
-709 -708 0
-710 702 0
-710 709 0
-711 -93 0
-711 -94 0
711 93 94 0
-712 -95 0
-712 -711 0
712 95 711 0
-713 -393 0
-713 -394 0
713 393 394 0
-714 -395 0
-714 -713 0
714 395 713 0
715 -712 714 0
716 712 -714 0
-717 -715 0
-717 -716 0
-718 710 0
-718 717 0
-719 -76 0
-719 -77 0
719 76 77 0
-720 -78 0
-720 -719 0
720 78 719 0
-721 -376 0
-721 -377 0
721 376 377 0
-722 -378 0
-722 -721 0
722 378 721 0
723 -720 722 0
724 720 -722 0
-725 -723 0
-725 -724 0
-726 718 0
-726 725 0
-727 -17 0
-727 -68 0
727 17 68 0
-728 -69 0
-728 -727 0
728 69 727 0
-729 -18 0
-729 -368 0
729 18 368 0
-730 -369 0
-730 -729 0
730 369 729 0
731 -728 730 0
732 728 -730 0
-733 -731 0
-733 -732 0
-734 726 0
-734 733 0
-735 67 0
-735 734 0
-736 -64 0
-736 735 0
736 0
